p cnf 79 265
-7 1 0
-7 2 0
7 -1 -2 0
-8 1 0
-8 3 0
8 -1 -3 0
-9 1 0
-9 4 0
9 -1 -4 0
-10 1 0
-10 5 0
10 -1 -5 0
-11 1 0
-11 6 0
11 -1 -6 0
-12 2 0
-12 3 0
12 -2 -3 0
-13 2 0
-13 4 0
13 -2 -4 0
-14 2 0
-14 5 0
14 -2 -5 0
-15 2 0
-15 6 0
15 -2 -6 0
-16 3 0
-16 4 0
16 -3 -4 0
-17 3 0
-17 5 0
17 -3 -5 0
-18 3 0
-18 6 0
18 -3 -6 0
-19 4 0
-19 5 0
19 -4 -5 0
-20 4 0
-20 6 0
20 -4 -6 0
-21 5 0
-21 6 0
21 -5 -6 0
-22 0
2 -22 23 0
-2 -22 -23 0
2 -23 22 0
-2 22 23 0
3 -23 24 0
-3 -23 -24 0
3 -24 23 0
-3 23 24 0
4 -24 25 0
-4 -24 -25 0
4 -25 24 0
-4 24 25 0
5 -25 26 0
-5 -25 -26 0
5 -26 25 0
-5 25 26 0
7 -26 27 0
-7 -26 -27 0
7 -27 26 0
-7 26 27 0
8 -27 28 0
-8 -27 -28 0
8 -28 27 0
-8 27 28 0
12 -28 29 0
-12 -28 -29 0
12 -29 28 0
-12 28 29 0
13 -29 30 0
-13 -29 -30 0
13 -30 29 0
-13 29 30 0
20 -30 31 0
-20 -30 -31 0
20 -31 30 0
-20 30 31 0
-31 0
-32 0
2 -32 33 0
-2 -32 -33 0
2 -33 32 0
-2 32 33 0
3 -33 34 0
-3 -33 -34 0
3 -34 33 0
-3 33 34 0
7 -34 35 0
-7 -34 -35 0
7 -35 34 0
-7 34 35 0
13 -35 36 0
-13 -35 -36 0
13 -36 35 0
-13 35 36 0
16 -36 37 0
-16 -36 -37 0
16 -37 36 0
-16 36 37 0
-37 0
-38 0
1 -38 39 0
-1 -38 -39 0
1 -39 38 0
-1 38 39 0
3 -39 40 0
-3 -39 -40 0
3 -40 39 0
-3 39 40 0
5 -40 41 0
-5 -40 -41 0
5 -41 40 0
-5 40 41 0
8 -41 42 0
-8 -41 -42 0
8 -42 41 0
-8 41 42 0
20 -42 43 0
-20 -42 -43 0
20 -43 42 0
-20 42 43 0
-43 0
-44 0
1 -44 45 0
-1 -44 -45 0
1 -45 44 0
-1 44 45 0
2 -45 46 0
-2 -45 -46 0
2 -46 45 0
-2 45 46 0
3 -46 47 0
-3 -46 -47 0
3 -47 46 0
-3 46 47 0
4 -47 48 0
-4 -47 -48 0
4 -48 47 0
-4 47 48 0
5 -48 49 0
-5 -48 -49 0
5 -49 48 0
-5 48 49 0
6 -49 50 0
-6 -49 -50 0
6 -50 49 0
-6 49 50 0
7 -50 51 0
-7 -50 -51 0
7 -51 50 0
-7 50 51 0
8 -51 52 0
-8 -51 -52 0
8 -52 51 0
-8 51 52 0
9 -52 53 0
-9 -52 -53 0
9 -53 52 0
-9 52 53 0
10 -53 54 0
-10 -53 -54 0
10 -54 53 0
-10 53 54 0
11 -54 55 0
-11 -54 -55 0
11 -55 54 0
-11 54 55 0
12 -55 56 0
-12 -55 -56 0
12 -56 55 0
-12 55 56 0
16 -56 57 0
-16 -56 -57 0
16 -57 56 0
-16 56 57 0
17 -57 58 0
-17 -57 -58 0
17 -58 57 0
-17 57 58 0
19 -58 59 0
-19 -58 -59 0
19 -59 58 0
-19 58 59 0
-59 0
60 0
1 -60 61 0
-1 -60 -61 0
1 -61 60 0
-1 60 61 0
2 -61 62 0
-2 -61 -62 0
2 -62 61 0
-2 61 62 0
3 -62 63 0
-3 -62 -63 0
3 -63 62 0
-3 62 63 0
4 -63 64 0
-4 -63 -64 0
4 -64 63 0
-4 63 64 0
5 -64 65 0
-5 -64 -65 0
5 -65 64 0
-5 64 65 0
6 -65 66 0
-6 -65 -66 0
6 -66 65 0
-6 65 66 0
9 -66 67 0
-9 -66 -67 0
9 -67 66 0
-9 66 67 0
10 -67 68 0
-10 -67 -68 0
10 -68 67 0
-10 67 68 0
11 -68 69 0
-11 -68 -69 0
11 -69 68 0
-11 68 69 0
21 -69 70 0
-21 -69 -70 0
21 -70 69 0
-21 69 70 0
-70 0
-71 0
1 -71 72 0
-1 -71 -72 0
1 -72 71 0
-1 71 72 0
4 -72 73 0
-4 -72 -73 0
4 -73 72 0
-4 72 73 0
5 -73 74 0
-5 -73 -74 0
5 -74 73 0
-5 73 74 0
8 -74 75 0
-8 -74 -75 0
8 -75 74 0
-8 74 75 0
11 -75 76 0
-11 -75 -76 0
11 -76 75 0
-11 75 76 0
12 -76 77 0
-12 -76 -77 0
12 -77 76 0
-12 76 77 0
19 -77 78 0
-19 -77 -78 0
19 -78 77 0
-19 77 78 0
20 -78 79 0
-20 -78 -79 0
20 -79 78 0
-20 78 79 0
-79 0
